\ Generated by MPModelProtoExporter
\   Name             : 
\   Format           : Free
\   Constraints      : 6
\   Variables        : 5
\     Binary         : 2
\     Integer        : 3
\     Continuous     : 0
Maximize
 Obj: +2 x[0] +3 x[1] +0.8 x[2] -3 y[0] -2 y[1] 
Subject to
 const_0: +0.2 x[0] +0.4 x[1] +0.2 x[2]  <= 1
 const_1: +1 x[0] -1e+08 y[0]  <= 0
 const_2: +1 x[1] -1e+08 y[1]  <= 0
 const_3: +1 x[0]  <= 3
 const_4: +1 x[1]  <= 2
 const_5: +1 x[2]  <= 5
Bounds
 0 <= x[0] <= inf
 0 <= x[1] <= inf
 0 <= x[2] <= inf
 0 <= y[0] <= 1
 0 <= y[1] <= 1
Binaries
 y[0]
 y[1]
Generals
 x[0]
 x[1]
 x[2]
End
